&CONTROL
  calculation  = "scf"
  prefix       = "lego"
  pseudo_dir   = "."
  outdir       = "."
  verbosity="high"
/
&SYSTEM
  ibrav     = 0
  celldm(1) = 6.273890
  nat       = 1986
  ntyp      = 1
  vdw_corr = "grimme-d2"
  ecutwfc   = 60
  ecutrho = 600
/
&ELECTRONS
  conv_thr    = 1.D-8
  mixing_beta = 0.3D0
/
&IONS
 ion_dynamics="bfgs"
/

CELL_PARAMETERS {alat}
-0.5	18.1865334	0.0
-16.0	8.660254	0.0
0.0	0.0	10.0

ATOMIC_SPECIES
xxxxxxx
xxxxxxx
xxxxxx

ATOMIC_POSITIONS {Angstrom}
Se1  -53.12  26.83524039083  4.34440811
Se2  -53.12  26.83524039083  7.43463952
Se1  -54.78  29.71044471883  4.34440811
Se2  -54.78  29.71044471883  7.43463952
Se1  -48.14  23.96003606283  4.34440811
Se2  -48.14  23.96003606283  7.43463952
Se1  -49.8  26.83524039083  4.34440811
Se2  -49.8  26.83524039083  7.43463952
Mo  -51.46  25.876838952  5.889523815
Se1  -51.46  29.71044471883  4.34440811
Se2  -51.46  29.71044471883  7.43463952
Mo  -53.12  28.75204328  5.889523815
Se1  -53.12  32.58564904683  4.34440811
Se2  -53.12  32.58564904683  7.43463952
Mo  -54.78  31.627247608  5.889523815
Se1  -54.78  35.46085337483  4.34440811
Se2  -54.78  35.46085337483  7.43463952
Se1  -43.16  21.08483173483  4.34440811
Se2  -43.16  21.08483173483  7.43463952
Se1  -44.82  23.96003606283  4.34440811
Se2  -44.82  23.96003606283  7.43463952
Mo  -46.48  23.001634624  5.889523815
Se1  -46.48  26.83524039083  4.34440811
Se2  -46.48  26.83524039083  7.43463952
Mo  -48.14  25.876838952  5.889523815
Se1  -48.14  29.71044471883  4.34440811
Se2  -48.14  29.71044471883  7.43463952
Mo  -49.8  28.75204328  5.889523815
Se1  -49.8  32.58564904683  4.34440811
Se2  -49.8  32.58564904683  7.43463952
Mo  -51.46  31.627247608  5.889523815
Se1  -51.46  35.46085337483  4.34440811
Se2  -51.46  35.46085337483  7.43463952
Mo  -53.12  34.502451936  5.889523815
Se1  -53.12  38.33605770283  4.34440811
Se2  -53.12  38.33605770283  7.43463952
Mo  -54.78  37.377656264  5.889523815
Se1  -54.78  41.21126203083  4.34440811
Se2  -54.78  41.21126203083  7.43463952
Se1  -38.18  18.20962740683  4.34440811
Se2  -38.18  18.20962740683  7.43463952
Se1  -39.84  21.08483173483  4.34440811
Se2  -39.84  21.08483173483  7.43463952
Mo  -41.5  20.126430296  5.889523815
Se1  -41.5  23.96003606283  4.34440811
Se2  -41.5  23.96003606283  7.43463952
Mo  -43.16  23.001634624  5.889523815
Se1  -43.16  26.83524039083  4.34440811
Se2  -43.16  26.83524039083  7.43463952
Mo  -44.82  25.876838952  5.889523815
Se1  -44.82  29.71044471883  4.34440811
Se2  -44.82  29.71044471883  7.43463952
Mo  -46.48  28.75204328  5.889523815
Se1  -46.48  32.58564904683  4.34440811
Se2  -46.48  32.58564904683  7.43463952
Mo  -48.14  31.627247608  5.889523815
Se1  -48.14  35.46085337483  4.34440811
Se2  -48.14  35.46085337483  7.43463952
Mo  -49.8  34.502451936  5.889523815
Se1  -49.8  38.33605770283  4.34440811
Se2  -49.8  38.33605770283  7.43463952
Mo  -51.46  37.377656264  5.889523815
Se1  -51.46  41.21126203083  4.34440811
Se2  -51.46  41.21126203083  7.43463952
Mo  -53.12  40.252860592  5.889523815
Se1  -53.12  44.08646635883  4.34440811
Se2  -53.12  44.08646635883  7.43463952
Mo  -54.78  43.12806492  5.889523815
Se1  -54.78  46.96167068683  4.34440811
Se2  -54.78  46.96167068683  7.43463952
Mo  -56.44  46.003269248  5.889523815
Se1  -56.44  49.83687501483  4.34440811
Se2  -56.44  49.83687501483  7.43463952
Se1  -33.2  15.33442307883  4.34440811
Se2  -33.2  15.33442307883  7.43463952
Se1  -34.86  18.20962740683  4.34440811
Se2  -34.86  18.20962740683  7.43463952
Mo  -36.52  17.251225968  5.889523815
Se1  -36.52  21.08483173483  4.34440811
Se2  -36.52  21.08483173483  7.43463952
Mo  -38.18  20.126430296  5.889523815
Se1  -38.18  23.96003606283  4.34440811
Se2  -38.18  23.96003606283  7.43463952
Mo  -39.84  23.001634624  5.889523815
Se1  -39.84  26.83524039083  4.34440811
Se2  -39.84  26.83524039083  7.43463952
Mo  -41.5  25.876838952  5.889523815
Se1  -41.5  29.71044471883  4.34440811
Se2  -41.5  29.71044471883  7.43463952
Mo  -43.16  28.75204328  5.889523815
Se1  -43.16  32.58564904683  4.34440811
Se2  -43.16  32.58564904683  7.43463952
Mo  -44.82  31.627247608  5.889523815
Se1  -44.82  35.46085337483  4.34440811
Se2  -44.82  35.46085337483  7.43463952
Mo  -46.48  34.502451936  5.889523815
Se1  -46.48  38.33605770283  4.34440811
Se2  -46.48  38.33605770283  7.43463952
Mo  -48.14  37.377656264  5.889523815
Se1  -48.14  41.21126203083  4.34440811
Se2  -48.14  41.21126203083  7.43463952
Mo  -49.8  40.252860592  5.889523815
Se1  -49.8  44.08646635883  4.34440811
Se2  -49.8  44.08646635883  7.43463952
Mo  -51.46  43.12806492  5.889523815
Se1  -51.46  46.96167068683  4.34440811
Se2  -51.46  46.96167068683  7.43463952
Mo  -53.12  46.003269248  5.889523815
Se1  -53.12  49.83687501483  4.34440811
Se2  -53.12  49.83687501483  7.43463952
Mo  -54.78  48.878473576  5.889523815
Se1  -54.78  52.71207934283  4.34440811
Se2  -54.78  52.71207934283  7.43463952
Mo  -56.44  51.753677904  5.889523815
Se1  -56.44  55.58728367083  4.34440811
Se2  -56.44  55.58728367083  7.43463952
Se1  -28.22  12.45921875083  4.34440811
Se2  -28.22  12.45921875083  7.43463952
Se1  -29.88  15.33442307883  4.34440811
Se2  -29.88  15.33442307883  7.43463952
Mo  -31.54  14.37602164  5.889523815
Se1  -31.54  18.20962740683  4.34440811
Se2  -31.54  18.20962740683  7.43463952
Mo  -33.2  17.251225968  5.889523815
Se1  -33.2  21.08483173483  4.34440811
Se2  -33.2  21.08483173483  7.43463952
Mo  -34.86  20.126430296  5.889523815
Se1  -34.86  23.96003606283  4.34440811
Se2  -34.86  23.96003606283  7.43463952
Mo  -36.52  23.001634624  5.889523815
Se1  -36.52  26.83524039083  4.34440811
Se2  -36.52  26.83524039083  7.43463952
Mo  -38.18  25.876838952  5.889523815
Se1  -38.18  29.71044471883  4.34440811
Se2  -38.18  29.71044471883  7.43463952
Mo  -39.84  28.75204328  5.889523815
Se1  -39.84  32.58564904683  4.34440811
Se2  -39.84  32.58564904683  7.43463952
Mo  -41.5  31.627247608  5.889523815
Se1  -41.5  35.46085337483  4.34440811
Se2  -41.5  35.46085337483  7.43463952
Mo  -43.16  34.502451936  5.889523815
Se1  -43.16  38.33605770283  4.34440811
Se2  -43.16  38.33605770283  7.43463952
Mo  -44.82  37.377656264  5.889523815
Se1  -44.82  41.21126203083  4.34440811
Se2  -44.82  41.21126203083  7.43463952
Mo  -46.48  40.252860592  5.889523815
Se1  -46.48  44.08646635883  4.34440811
Se2  -46.48  44.08646635883  7.43463952
Mo  -48.14  43.12806492  5.889523815
Se1  -48.14  46.96167068683  4.34440811
Se2  -48.14  46.96167068683  7.43463952
Mo  -49.8  46.003269248  5.889523815
Se1  -49.8  49.83687501483  4.34440811
Se2  -49.8  49.83687501483  7.43463952
Mo  -51.46  48.878473576  5.889523815
Se1  -51.46  52.71207934283  4.34440811
Se2  -51.46  52.71207934283  7.43463952
Mo  -53.12  51.753677904  5.889523815
Se1  -53.12  55.58728367083  4.34440811
Se2  -53.12  55.58728367083  7.43463952
Mo  -54.78  54.628882232  5.889523815
Se1  -54.78  58.46248799883  4.34440811
Se2  -54.78  58.46248799883  7.43463952
Mo  -56.44  57.50408656  5.889523815
Se1  -56.44  61.33769232683  4.34440811
Se2  -56.44  61.33769232683  7.43463952
Se1  -23.24  9.58401442283  4.34440811
Se2  -23.24  9.58401442283  7.43463952
Se1  -24.9  12.45921875083  4.34440811
Se2  -24.9  12.45921875083  7.43463952
Mo  -26.56  11.500817312  5.889523815
Se1  -26.56  15.33442307883  4.34440811
Se2  -26.56  15.33442307883  7.43463952
Mo  -28.22  14.37602164  5.889523815
Se1  -28.22  18.20962740683  4.34440811
Se2  -28.22  18.20962740683  7.43463952
Mo  -29.88  17.251225968  5.889523815
Se1  -29.88  21.08483173483  4.34440811
Se2  -29.88  21.08483173483  7.43463952
Mo  -31.54  20.126430296  5.889523815
Se1  -31.54  23.96003606283  4.34440811
Se2  -31.54  23.96003606283  7.43463952
Mo  -33.2  23.001634624  5.889523815
Se1  -33.2  26.83524039083  4.34440811
Se2  -33.2  26.83524039083  7.43463952
Mo  -34.86  25.876838952  5.889523815
Se1  -34.86  29.71044471883  4.34440811
Se2  -34.86  29.71044471883  7.43463952
Mo  -36.52  28.75204328  5.889523815
Se1  -36.52  32.58564904683  4.34440811
Se2  -36.52  32.58564904683  7.43463952
Mo  -38.18  31.627247608  5.889523815
Se1  -38.18  35.46085337483  4.34440811
Se2  -38.18  35.46085337483  7.43463952
Mo  -39.84  34.502451936  5.889523815
Se1  -39.84  38.33605770283  4.34440811
Se2  -39.84  38.33605770283  7.43463952
Mo  -41.5  37.377656264  5.889523815
Se1  -41.5  41.21126203083  4.34440811
Se2  -41.5  41.21126203083  7.43463952
Mo  -43.16  40.252860592  5.889523815
Se1  -43.16  44.08646635883  4.34440811
Se2  -43.16  44.08646635883  7.43463952
Mo  -44.82  43.12806492  5.889523815
Se1  -44.82  46.96167068683  4.34440811
Se2  -44.82  46.96167068683  7.43463952
Mo  -46.48  46.003269248  5.889523815
Se1  -46.48  49.83687501483  4.34440811
Se2  -46.48  49.83687501483  7.43463952
Mo  -48.14  48.878473576  5.889523815
Se1  -48.14  52.71207934283  4.34440811
Se2  -48.14  52.71207934283  7.43463952
Mo  -49.8  51.753677904  5.889523815
Se1  -49.8  55.58728367083  4.34440811
Se2  -49.8  55.58728367083  7.43463952
Mo  -51.46  54.628882232  5.889523815
Se1  -51.46  58.46248799883  4.34440811
Se2  -51.46  58.46248799883  7.43463952
Mo  -53.12  57.50408656  5.889523815
Se1  -53.12  61.33769232683  4.34440811
Se2  -53.12  61.33769232683  7.43463952
Mo  -54.78  60.379290888  5.889523815
Se1  -54.78  64.21289665483  4.34440811
Se2  -54.78  64.21289665483  7.43463952
Mo  -56.44  63.254495216  5.889523815
Se1  -56.44  67.08810098283  4.34440811
Se2  -56.44  67.08810098283  7.43463952
Se1  -18.26  6.70881009483  4.34440811
Se2  -18.26  6.70881009483  7.43463952
Se1  -19.92  9.58401442283  4.34440811
Se2  -19.92  9.58401442283  7.43463952
Mo  -21.58  8.625612984  5.889523815
Se1  -21.58  12.45921875083  4.34440811
Se2  -21.58  12.45921875083  7.43463952
Mo  -23.24  11.500817312  5.889523815
Se1  -23.24  15.33442307883  4.34440811
Se2  -23.24  15.33442307883  7.43463952
Mo  -24.9  14.37602164  5.889523815
Se1  -24.9  18.20962740683  4.34440811
Se2  -24.9  18.20962740683  7.43463952
Mo  -26.56  17.251225968  5.889523815
Se1  -26.56  21.08483173483  4.34440811
Se2  -26.56  21.08483173483  7.43463952
Mo  -28.22  20.126430296  5.889523815
Se1  -28.22  23.96003606283  4.34440811
Se2  -28.22  23.96003606283  7.43463952
Mo  -29.88  23.001634624  5.889523815
Se1  -29.88  26.83524039083  4.34440811
Se2  -29.88  26.83524039083  7.43463952
Mo  -31.54  25.876838952  5.889523815
Se1  -31.54  29.71044471883  4.34440811
Se2  -31.54  29.71044471883  7.43463952
Mo  -33.2  28.75204328  5.889523815
Se1  -33.2  32.58564904683  4.34440811
Se2  -33.2  32.58564904683  7.43463952
Mo  -34.86  31.627247608  5.889523815
Se1  -34.86  35.46085337483  4.34440811
Se2  -34.86  35.46085337483  7.43463952
Mo  -36.52  34.502451936  5.889523815
Se1  -36.52  38.33605770283  4.34440811
Se2  -36.52  38.33605770283  7.43463952
Mo  -38.18  37.377656264  5.889523815
Se1  -38.18  41.21126203083  4.34440811
Se2  -38.18  41.21126203083  7.43463952
Mo  -39.84  40.252860592  5.889523815
Se1  -39.84  44.08646635883  4.34440811
Se2  -39.84  44.08646635883  7.43463952
Mo  -41.5  43.12806492  5.889523815
Se1  -41.5  46.96167068683  4.34440811
Se2  -41.5  46.96167068683  7.43463952
Mo  -43.16  46.003269248  5.889523815
Se1  -43.16  49.83687501483  4.34440811
Se2  -43.16  49.83687501483  7.43463952
Mo  -44.82  48.878473576  5.889523815
Se1  -44.82  52.71207934283  4.34440811
Se2  -44.82  52.71207934283  7.43463952
Mo  -46.48  51.753677904  5.889523815
Se1  -46.48  55.58728367083  4.34440811
Se2  -46.48  55.58728367083  7.43463952
Mo  -48.14  54.628882232  5.889523815
Se1  -48.14  58.46248799883  4.34440811
Se2  -48.14  58.46248799883  7.43463952
Mo  -49.8  57.50408656  5.889523815
Se1  -49.8  61.33769232683  4.34440811
Se2  -49.8  61.33769232683  7.43463952
Mo  -51.46  60.379290888  5.889523815
Se1  -51.46  64.21289665483  4.34440811
Se2  -51.46  64.21289665483  7.43463952
Mo  -53.12  63.254495216  5.889523815
Se1  -53.12  67.08810098283  4.34440811
Se2  -53.12  67.08810098283  7.43463952
Mo  -54.78  66.129699544  5.889523815
Se1  -54.78  69.96330531083  4.34440811
Se2  -54.78  69.96330531083  7.43463952
Mo  -56.44  69.004903872  5.889523815
Se1  -56.44  72.83850963883  4.34440811
Se2  -56.44  72.83850963883  7.43463952
Se1  -14.94  6.70881009483  4.34440811
Se2  -14.94  6.70881009483  7.43463952
Mo  -16.6  5.750408656  5.889523815
Se1  -16.6  9.58401442283  4.34440811
Se2  -16.6  9.58401442283  7.43463952
Mo  -18.26  8.625612984  5.889523815
Se1  -18.26  12.45921875083  4.34440811
Se2  -18.26  12.45921875083  7.43463952
Mo  -19.92  11.500817312  5.889523815
Se1  -19.92  15.33442307883  4.34440811
Se2  -19.92  15.33442307883  7.43463952
Mo  -21.58  14.37602164  5.889523815
Se1  -21.58  18.20962740683  4.34440811
Se2  -21.58  18.20962740683  7.43463952
Mo  -23.24  17.251225968  5.889523815
Se1  -23.24  21.08483173483  4.34440811
Se2  -23.24  21.08483173483  7.43463952
Mo  -24.9  20.126430296  5.889523815
Se1  -24.9  23.96003606283  4.34440811
Se2  -24.9  23.96003606283  7.43463952
Mo  -26.56  23.001634624  5.889523815
Se1  -26.56  26.83524039083  4.34440811
Se2  -26.56  26.83524039083  7.43463952
Mo  -28.22  25.876838952  5.889523815
Se1  -28.22  29.71044471883  4.34440811
Se2  -28.22  29.71044471883  7.43463952
Mo  -29.88  28.75204328  5.889523815
Se1  -29.88  32.58564904683  4.34440811
Se2  -29.88  32.58564904683  7.43463952
Mo  -31.54  31.627247608  5.889523815
Se1  -31.54  35.46085337483  4.34440811
Se2  -31.54  35.46085337483  7.43463952
Mo  -33.2  34.502451936  5.889523815
Se1  -33.2  38.33605770283  4.34440811
Se2  -33.2  38.33605770283  7.43463952
Mo  -34.86  37.377656264  5.889523815
Se1  -34.86  41.21126203083  4.34440811
Se2  -34.86  41.21126203083  7.43463952
Mo  -36.52  40.252860592  5.889523815
Se1  -36.52  44.08646635883  4.34440811
Se2  -36.52  44.08646635883  7.43463952
Mo  -38.18  43.12806492  5.889523815
Se1  -38.18  46.96167068683  4.34440811
Se2  -38.18  46.96167068683  7.43463952
Mo  -39.84  46.003269248  5.889523815
Se1  -39.84  49.83687501483  4.34440811
Se2  -39.84  49.83687501483  7.43463952
Mo  -41.5  48.878473576  5.889523815
Se1  -41.5  52.71207934283  4.34440811
Se2  -41.5  52.71207934283  7.43463952
Mo  -43.16  51.753677904  5.889523815
Se1  -43.16  55.58728367083  4.34440811
Se2  -43.16  55.58728367083  7.43463952
Mo  -44.82  54.628882232  5.889523815
Se1  -44.82  58.46248799883  4.34440811
Se2  -44.82  58.46248799883  7.43463952
Mo  -46.48  57.50408656  5.889523815
Se1  -46.48  61.33769232683  4.34440811
Se2  -46.48  61.33769232683  7.43463952
Mo  -48.14  60.379290888  5.889523815
Se1  -48.14  64.21289665483  4.34440811
Se2  -48.14  64.21289665483  7.43463952
Mo  -49.8  63.254495216  5.889523815
Se1  -49.8  67.08810098283  4.34440811
Se2  -49.8  67.08810098283  7.43463952
Mo  -51.46  66.129699544  5.889523815
Se1  -51.46  69.96330531083  4.34440811
Se2  -51.46  69.96330531083  7.43463952
Mo  -53.12  69.004903872  5.889523815
Se1  -53.12  72.83850963883  4.34440811
Se2  -53.12  72.83850963883  7.43463952
Mo  -54.78  71.8801082  5.889523815
Se1  -54.78  75.71371396683  4.34440811
Se2  -54.78  75.71371396683  7.43463952
Mo  -56.44  74.755312528  5.889523815
Se1  -56.44  78.58891829483  4.34440811
Se2  -56.44  78.58891829483  7.43463952
Se1  -9.96  3.83360576683  4.34440811
Se2  -9.96  3.83360576683  7.43463952
Se1  -11.62  6.70881009483  4.34440811
Se2  -11.62  6.70881009483  7.43463952
Mo  -13.28  5.750408656  5.889523815
Se1  -13.28  9.58401442283  4.34440811
Se2  -13.28  9.58401442283  7.43463952
Mo  -14.94  8.625612984  5.889523815
Se1  -14.94  12.45921875083  4.34440811
Se2  -14.94  12.45921875083  7.43463952
Mo  -16.6  11.500817312  5.889523815
Se1  -16.6  15.33442307883  4.34440811
Se2  -16.6  15.33442307883  7.43463952
Mo  -18.26  14.37602164  5.889523815
Se1  -18.26  18.20962740683  4.34440811
Se2  -18.26  18.20962740683  7.43463952
Mo  -19.92  17.251225968  5.889523815
Se1  -19.92  21.08483173483  4.34440811
Se2  -19.92  21.08483173483  7.43463952
Mo  -21.58  20.126430296  5.889523815
Se1  -21.58  23.96003606283  4.34440811
Se2  -21.58  23.96003606283  7.43463952
Mo  -23.24  23.001634624  5.889523815
Se1  -23.24  26.83524039083  4.34440811
Se2  -23.24  26.83524039083  7.43463952
Mo  -24.9  25.876838952  5.889523815
Se1  -24.9  29.71044471883  4.34440811
Se2  -24.9  29.71044471883  7.43463952
Mo  -26.56  28.75204328  5.889523815
Se1  -26.56  32.58564904683  4.34440811
Se2  -26.56  32.58564904683  7.43463952
Mo  -28.22  31.627247608  5.889523815
Se1  -28.22  35.46085337483  4.34440811
Se2  -28.22  35.46085337483  7.43463952
Mo  -29.88  34.502451936  5.889523815
Se1  -29.88  38.33605770283  4.34440811
Se2  -29.88  38.33605770283  7.43463952
Mo  -31.54  37.377656264  5.889523815
Se1  -31.54  41.21126203083  4.34440811
Se2  -31.54  41.21126203083  7.43463952
Mo  -33.2  40.252860592  5.889523815
Se1  -33.2  44.08646635883  4.34440811
Se2  -33.2  44.08646635883  7.43463952
Mo  -34.86  43.12806492  5.889523815
Se1  -34.86  46.96167068683  4.34440811
Se2  -34.86  46.96167068683  7.43463952
Mo  -36.52  46.003269248  5.889523815
Se1  -36.52  49.83687501483  4.34440811
Se2  -36.52  49.83687501483  7.43463952
Mo  -38.18  48.878473576  5.889523815
Se1  -38.18  52.71207934283  4.34440811
Se2  -38.18  52.71207934283  7.43463952
Mo  -39.84  51.753677904  5.889523815
Se1  -39.84  55.58728367083  4.34440811
Se2  -39.84  55.58728367083  7.43463952
Mo  -41.5  54.628882232  5.889523815
Se1  -41.5  58.46248799883  4.34440811
Se2  -41.5  58.46248799883  7.43463952
Mo  -43.16  57.50408656  5.889523815
Se1  -43.16  61.33769232683  4.34440811
Se2  -43.16  61.33769232683  7.43463952
Mo  -44.82  60.379290888  5.889523815
Se1  -44.82  64.21289665483  4.34440811
Se2  -44.82  64.21289665483  7.43463952
Mo  -46.48  63.254495216  5.889523815
Se1  -46.48  67.08810098283  4.34440811
Se2  -46.48  67.08810098283  7.43463952
Mo  -48.14  66.129699544  5.889523815
Se1  -48.14  69.96330531083  4.34440811
Se2  -48.14  69.96330531083  7.43463952
Mo  -49.8  69.004903872  5.889523815
Se1  -49.8  72.83850963883  4.34440811
Se2  -49.8  72.83850963883  7.43463952
Mo  -51.46  71.8801082  5.889523815
Se1  -51.46  75.71371396683  4.34440811
Se2  -51.46  75.71371396683  7.43463952
Mo  -53.12  74.755312528  5.889523815
Se1  -53.12  78.58891829483  4.34440811
Se2  -53.12  78.58891829483  7.43463952
Mo  -54.78  77.630516856  5.889523815
Se1  -54.78  81.46412262283  4.34440811
Se2  -54.78  81.46412262283  7.43463952
Mo  -56.44  80.505721184  5.889523815
Se1  -56.44  84.33932695083  4.34440811
Se2  -56.44  84.33932695083  7.43463952
Se1  -4.98  0.95840143883  4.34440811
Se2  -4.98  0.95840143883  7.43463952
Se1  -6.64  3.83360576683  4.34440811
Se2  -6.64  3.83360576683  7.43463952
Mo  -8.3  2.875204328  5.889523815
Se1  -8.3  6.70881009483  4.34440811
Se2  -8.3  6.70881009483  7.43463952
Mo  -9.96  5.750408656  5.889523815
Se1  -9.96  9.58401442283  4.34440811
Se2  -9.96  9.58401442283  7.43463952
Mo  -11.62  8.625612984  5.889523815
Se1  -11.62  12.45921875083  4.34440811
Se2  -11.62  12.45921875083  7.43463952
Mo  -13.28  11.500817312  5.889523815
Se1  -13.28  15.33442307883  4.34440811
Se2  -13.28  15.33442307883  7.43463952
Mo  -14.94  14.37602164  5.889523815
Se1  -14.94  18.20962740683  4.34440811
Se2  -14.94  18.20962740683  7.43463952
Mo  -16.6  17.251225968  5.889523815
Se1  -16.6  21.08483173483  4.34440811
Se2  -16.6  21.08483173483  7.43463952
Mo  -18.26  20.126430296  5.889523815
Se1  -18.26  23.96003606283  4.34440811
Se2  -18.26  23.96003606283  7.43463952
Mo  -19.92  23.001634624  5.889523815
Se1  -19.92  26.83524039083  4.34440811
Se2  -19.92  26.83524039083  7.43463952
Mo  -21.58  25.876838952  5.889523815
Se1  -21.58  29.71044471883  4.34440811
Se2  -21.58  29.71044471883  7.43463952
Mo  -23.24  28.75204328  5.889523815
Se1  -23.24  32.58564904683  4.34440811
Se2  -23.24  32.58564904683  7.43463952
Mo  -24.9  31.627247608  5.889523815
Se1  -24.9  35.46085337483  4.34440811
Se2  -24.9  35.46085337483  7.43463952
Mo  -26.56  34.502451936  5.889523815
Se1  -26.56  38.33605770283  4.34440811
Se2  -26.56  38.33605770283  7.43463952
Mo  -28.22  37.377656264  5.889523815
Se1  -28.22  41.21126203083  4.34440811
Se2  -28.22  41.21126203083  7.43463952
Mo  -29.88  40.252860592  5.889523815
Se1  -29.88  44.08646635883  4.34440811
Se2  -29.88  44.08646635883  7.43463952
Mo  -31.54  43.12806492  5.889523815
Se1  -31.54  46.96167068683  4.34440811
Se2  -31.54  46.96167068683  7.43463952
Mo  -33.2  46.003269248  5.889523815
Se1  -33.2  49.83687501483  4.34440811
Se2  -33.2  49.83687501483  7.43463952
Mo  -34.86  48.878473576  5.889523815
Se1  -34.86  52.71207934283  4.34440811
Se2  -34.86  52.71207934283  7.43463952
Mo  -36.52  51.753677904  5.889523815
Se1  -36.52  55.58728367083  4.34440811
Se2  -36.52  55.58728367083  7.43463952
Mo  -38.18  54.628882232  5.889523815
Se1  -38.18  58.46248799883  4.34440811
Se2  -38.18  58.46248799883  7.43463952
Mo  -39.84  57.50408656  5.889523815
Se1  -39.84  61.33769232683  4.34440811
Se2  -39.84  61.33769232683  7.43463952
Mo  -41.5  60.379290888  5.889523815
Se1  -41.5  64.21289665483  4.34440811
Se2  -41.5  64.21289665483  7.43463952
Mo  -43.16  63.254495216  5.889523815
Se1  -43.16  67.08810098283  4.34440811
Se2  -43.16  67.08810098283  7.43463952
Mo  -44.82  66.129699544  5.889523815
Se1  -44.82  69.96330531083  4.34440811
Se2  -44.82  69.96330531083  7.43463952
Mo  -46.48  69.004903872  5.889523815
Se1  -46.48  72.83850963883  4.34440811
Se2  -46.48  72.83850963883  7.43463952
Mo  -48.14  71.8801082  5.889523815
Se1  -48.14  75.71371396683  4.34440811
Se2  -48.14  75.71371396683  7.43463952
Mo  -49.8  74.755312528  5.889523815
Se1  -49.8  78.58891829483  4.34440811
Se2  -49.8  78.58891829483  7.43463952
Mo  -51.46  77.630516856  5.889523815
Se1  -51.46  81.46412262283  4.34440811
Se2  -51.46  81.46412262283  7.43463952
Mo  -53.12  80.505721184  5.889523815
Se1  -53.12  84.33932695083  4.34440811
Se2  -53.12  84.33932695083  7.43463952
Mo  -54.78  83.380925512  5.889523815
Mo  -56.44  86.25612984  5.889523815
Mo  -3.32  0.0  5.889523815
Se1  -3.32  3.83360576683  4.34440811
Se2  -3.32  3.83360576683  7.43463952
Mo  -4.98  2.875204328  5.889523815
Se1  -4.98  6.70881009483  4.34440811
Se2  -4.98  6.70881009483  7.43463952
Mo  -6.64  5.750408656  5.889523815
Se1  -6.64  9.58401442283  4.34440811
Se2  -6.64  9.58401442283  7.43463952
Mo  -8.3  8.625612984  5.889523815
Se1  -8.3  12.45921875083  4.34440811
Se2  -8.3  12.45921875083  7.43463952
Mo  -9.96  11.500817312  5.889523815
Se1  -9.96  15.33442307883  4.34440811
Se2  -9.96  15.33442307883  7.43463952
Mo  -11.62  14.37602164  5.889523815
Se1  -11.62  18.20962740683  4.34440811
Se2  -11.62  18.20962740683  7.43463952
Mo  -13.28  17.251225968  5.889523815
Se1  -13.28  21.08483173483  4.34440811
Se2  -13.28  21.08483173483  7.43463952
Mo  -14.94  20.126430296  5.889523815
Se1  -14.94  23.96003606283  4.34440811
Se2  -14.94  23.96003606283  7.43463952
Mo  -16.6  23.001634624  5.889523815
Se1  -16.6  26.83524039083  4.34440811
Se2  -16.6  26.83524039083  7.43463952
Mo  -18.26  25.876838952  5.889523815
Se1  -18.26  29.71044471883  4.34440811
Se2  -18.26  29.71044471883  7.43463952
Mo  -19.92  28.75204328  5.889523815
Se1  -19.92  32.58564904683  4.34440811
Se2  -19.92  32.58564904683  7.43463952
Mo  -21.58  31.627247608  5.889523815
Se1  -21.58  35.46085337483  4.34440811
Se2  -21.58  35.46085337483  7.43463952
Mo  -23.24  34.502451936  5.889523815
Se1  -23.24  38.33605770283  4.34440811
Se2  -23.24  38.33605770283  7.43463952
Mo  -24.9  37.377656264  5.889523815
Se1  -24.9  41.21126203083  4.34440811
Se2  -24.9  41.21126203083  7.43463952
Mo  -26.56  40.252860592  5.889523815
Se1  -26.56  44.08646635883  4.34440811
Se2  -26.56  44.08646635883  7.43463952
Mo  -28.22  43.12806492  5.889523815
Se1  -28.22  46.96167068683  4.34440811
Se2  -28.22  46.96167068683  7.43463952
Mo  -29.88  46.003269248  5.889523815
Se1  -29.88  49.83687501483  4.34440811
Se2  -29.88  49.83687501483  7.43463952
Mo  -31.54  48.878473576  5.889523815
Se1  -31.54  52.71207934283  4.34440811
Se2  -31.54  52.71207934283  7.43463952
Mo  -33.2  51.753677904  5.889523815
Se1  -33.2  55.58728367083  4.34440811
Se2  -33.2  55.58728367083  7.43463952
Mo  -34.86  54.628882232  5.889523815
Se1  -34.86  58.46248799883  4.34440811
Se2  -34.86  58.46248799883  7.43463952
Mo  -36.52  57.50408656  5.889523815
Se1  -36.52  61.33769232683  4.34440811
Se2  -36.52  61.33769232683  7.43463952
Mo  -38.18  60.379290888  5.889523815
Se1  -38.18  64.21289665483  4.34440811
Se2  -38.18  64.21289665483  7.43463952
Mo  -39.84  63.254495216  5.889523815
Se1  -39.84  67.08810098283  4.34440811
Se2  -39.84  67.08810098283  7.43463952
Mo  -41.5  66.129699544  5.889523815
Se1  -41.5  69.96330531083  4.34440811
Se2  -41.5  69.96330531083  7.43463952
Mo  -43.16  69.004903872  5.889523815
Se1  -43.16  72.83850963883  4.34440811
Se2  -43.16  72.83850963883  7.43463952
Mo  -44.82  71.8801082  5.889523815
Se1  -44.82  75.71371396683  4.34440811
Se2  -44.82  75.71371396683  7.43463952
Mo  -46.48  74.755312528  5.889523815
Se1  -46.48  78.58891829483  4.34440811
Se2  -46.48  78.58891829483  7.43463952
Mo  -48.14  77.630516856  5.889523815
Se1  -48.14  81.46412262283  4.34440811
Se2  -48.14  81.46412262283  7.43463952
Mo  -49.8  80.505721184  5.889523815
Mo  -51.46  83.380925512  5.889523815
Mo  -3.32  5.750408656  5.889523815
Se1  -3.32  9.58401442283  4.34440811
Se2  -3.32  9.58401442283  7.43463952
Mo  -4.98  8.625612984  5.889523815
Se1  -4.98  12.45921875083  4.34440811
Se2  -4.98  12.45921875083  7.43463952
Mo  -6.64  11.500817312  5.889523815
Se1  -6.64  15.33442307883  4.34440811
Se2  -6.64  15.33442307883  7.43463952
Mo  -8.3  14.37602164  5.889523815
Se1  -8.3  18.20962740683  4.34440811
Se2  -8.3  18.20962740683  7.43463952
Mo  -9.96  17.251225968  5.889523815
Se1  -9.96  21.08483173483  4.34440811
Se2  -9.96  21.08483173483  7.43463952
Mo  -11.62  20.126430296  5.889523815
Se1  -11.62  23.96003606283  4.34440811
Se2  -11.62  23.96003606283  7.43463952
Mo  -13.28  23.001634624  5.889523815
Se1  -13.28  26.83524039083  4.34440811
Se2  -13.28  26.83524039083  7.43463952
Mo  -14.94  25.876838952  5.889523815
Se1  -14.94  29.71044471883  4.34440811
Se2  -14.94  29.71044471883  7.43463952
Mo  -16.6  28.75204328  5.889523815
Se1  -16.6  32.58564904683  4.34440811
Se2  -16.6  32.58564904683  7.43463952
Mo  -18.26  31.627247608  5.889523815
Se1  -18.26  35.46085337483  4.34440811
Se2  -18.26  35.46085337483  7.43463952
Mo  -19.92  34.502451936  5.889523815
Se1  -19.92  38.33605770283  4.34440811
Se2  -19.92  38.33605770283  7.43463952
Mo  -21.58  37.377656264  5.889523815
Se1  -21.58  41.21126203083  4.34440811
Se2  -21.58  41.21126203083  7.43463952
Mo  -23.24  40.252860592  5.889523815
Se1  -23.24  44.08646635883  4.34440811
Se2  -23.24  44.08646635883  7.43463952
Mo  -24.9  43.12806492  5.889523815
Se1  -24.9  46.96167068683  4.34440811
Se2  -24.9  46.96167068683  7.43463952
Mo  -26.56  46.003269248  5.889523815
Se1  -26.56  49.83687501483  4.34440811
Se2  -26.56  49.83687501483  7.43463952
Mo  -28.22  48.878473576  5.889523815
Se1  -28.22  52.71207934283  4.34440811
Se2  -28.22  52.71207934283  7.43463952
Mo  -29.88  51.753677904  5.889523815
Se1  -29.88  55.58728367083  4.34440811
Se2  -29.88  55.58728367083  7.43463952
Mo  -31.54  54.628882232  5.889523815
Se1  -31.54  58.46248799883  4.34440811
Se2  -31.54  58.46248799883  7.43463952
Mo  -33.2  57.50408656  5.889523815
Se1  -33.2  61.33769232683  4.34440811
Se2  -33.2  61.33769232683  7.43463952
Mo  -34.86  60.379290888  5.889523815
Se1  -34.86  64.21289665483  4.34440811
Se2  -34.86  64.21289665483  7.43463952
Mo  -36.52  63.254495216  5.889523815
Se1  -36.52  67.08810098283  4.34440811
Se2  -36.52  67.08810098283  7.43463952
Mo  -38.18  66.129699544  5.889523815
Se1  -38.18  69.96330531083  4.34440811
Se2  -38.18  69.96330531083  7.43463952
Mo  -39.84  69.004903872  5.889523815
Se1  -39.84  72.83850963883  4.34440811
Se2  -39.84  72.83850963883  7.43463952
Mo  -41.5  71.8801082  5.889523815
Se1  -41.5  75.71371396683  4.34440811
Se2  -41.5  75.71371396683  7.43463952
Mo  -43.16  74.755312528  5.889523815
Se1  -43.16  78.58891829483  4.34440811
Se2  -43.16  78.58891829483  7.43463952
Mo  -44.82  77.630516856  5.889523815
Mo  -46.48  80.505721184  5.889523815
Mo  -3.32  11.500817312  5.889523815
Se1  -3.32  15.33442307883  4.34440811
Se2  -3.32  15.33442307883  7.43463952
Mo  -4.98  14.37602164  5.889523815
Se1  -4.98  18.20962740683  4.34440811
Se2  -4.98  18.20962740683  7.43463952
Mo  -6.64  17.251225968  5.889523815
Se1  -6.64  21.08483173483  4.34440811
Se2  -6.64  21.08483173483  7.43463952
Mo  -8.3  20.126430296  5.889523815
Se1  -8.3  23.96003606283  4.34440811
Se2  -8.3  23.96003606283  7.43463952
Mo  -9.96  23.001634624  5.889523815
Se1  -9.96  26.83524039083  4.34440811
Se2  -9.96  26.83524039083  7.43463952
Mo  -11.62  25.876838952  5.889523815
Se1  -11.62  29.71044471883  4.34440811
Se2  -11.62  29.71044471883  7.43463952
Mo  -13.28  28.75204328  5.889523815
Se1  -13.28  32.58564904683  4.34440811
Se2  -13.28  32.58564904683  7.43463952
Mo  -14.94  31.627247608  5.889523815
Se1  -14.94  35.46085337483  4.34440811
Se2  -14.94  35.46085337483  7.43463952
Mo  -16.6  34.502451936  5.889523815
Se1  -16.6  38.33605770283  4.34440811
Se2  -16.6  38.33605770283  7.43463952
Mo  -18.26  37.377656264  5.889523815
Se1  -18.26  41.21126203083  4.34440811
Se2  -18.26  41.21126203083  7.43463952
Mo  -19.92  40.252860592  5.889523815
Se1  -19.92  44.08646635883  4.34440811
Se2  -19.92  44.08646635883  7.43463952
Mo  -21.58  43.12806492  5.889523815
Se1  -21.58  46.96167068683  4.34440811
Se2  -21.58  46.96167068683  7.43463952
Mo  -23.24  46.003269248  5.889523815
Se1  -23.24  49.83687501483  4.34440811
Se2  -23.24  49.83687501483  7.43463952
Mo  -24.9  48.878473576  5.889523815
Se1  -24.9  52.71207934283  4.34440811
Se2  -24.9  52.71207934283  7.43463952
Mo  -26.56  51.753677904  5.889523815