Masses_l1:
Mo 95.94
Se1 78.96
Se2 78.96

Masses_l2:
W 183.84
Se1 78.96
Se2 78.96

FFs:
# potentials
pair_style hybrid/overlay sw/mod sw/mod kolmogorov/crespi/z 14.0 kolmogorov/crespi/z 14.0 kolmogorov/crespi/z 14.0 kolmogorov/crespi/z 14.0 lj/cut 10.0

# Intralayer Interaction
pair_coeff * * sw/mod 1 tmd.sw Mo Se Se NULL NULL NULL
pair_coeff * * sw/mod 2 tmd.sw NULL NULL NULL W Se Se

# Interlayer Interaction
pair_coeff 1 5 kolmogorov/crespi/z 1 MoWSe.KC Mo NULL NULL  NULL Se NULL
pair_coeff 3 4 kolmogorov/crespi/z 2 MoWSe.KC NULL NULL Se  W NULL NULL
pair_coeff 3 5 kolmogorov/crespi/z 3 MoWSe.KC NULL NULL Se  NULL Se NULL
pair_coeff 1 4 kolmogorov/crespi/z 4 MoWSe.KC Mo NULL NULL  W NULL NULL
pair_coeff * * lj/cut 0.0 3.0
