&CONTROL
  calculation  = "scf"
  prefix       = "lego"
  pseudo_dir   = "."
  outdir       = "."
  verbosity="high"
/
&SYSTEM
  ibrav     = 0
  celldm(1) = 6.273890
  nat       = 4326
  ntyp      = 1
  vdw_corr = "grimme-d2"
  ecutwfc   = 60
  ecutrho = 600
/
&ELECTRONS
  conv_thr    = 1.D-8
  mixing_beta = 0.3D0
/
&IONS
 ion_dynamics="bfgs"
/

CELL_PARAMETERS {alat}
-0.5	26.8467874	0.0
-23.5	12.990381	0.0
0.0	0.0	10.0

ATOMIC_SPECIES
xxxxxxx
xxxxxxx
xxxxxx

ATOMIC_POSITIONS {Angstrom}
Se1  -78.02  41.21126203083  4.34440811
Se2  -78.02  41.21126203083  7.43463952
Se1  -79.68  44.08646635883  4.34440811
Se2  -79.68  44.08646635883  7.43463952
Se1  -73.04  38.33605770283  4.34440811
Se2  -73.04  38.33605770283  7.43463952
Se1  -74.7  41.21126203083  4.34440811
Se2  -74.7  41.21126203083  7.43463952
Mo  -76.36  40.252860592  5.889523815
Se1  -76.36  44.08646635883  4.34440811
Se2  -76.36  44.08646635883  7.43463952
Mo  -78.02  43.12806492  5.889523815
Se1  -78.02  46.96167068683  4.34440811
Se2  -78.02  46.96167068683  7.43463952
Mo  -79.68  46.003269248  5.889523815
Se1  -79.68  49.83687501483  4.34440811
Se2  -79.68  49.83687501483  7.43463952
Se1  -68.06  35.46085337483  4.34440811
Se2  -68.06  35.46085337483  7.43463952
Se1  -69.72  38.33605770283  4.34440811
Se2  -69.72  38.33605770283  7.43463952
Mo  -71.38  37.377656264  5.889523815
Se1  -71.38  41.21126203083  4.34440811
Se2  -71.38  41.21126203083  7.43463952
Mo  -73.04  40.252860592  5.889523815
Se1  -73.04  44.08646635883  4.34440811
Se2  -73.04  44.08646635883  7.43463952
Mo  -74.7  43.12806492  5.889523815
Se1  -74.7  46.96167068683  4.34440811
Se2  -74.7  46.96167068683  7.43463952
Mo  -76.36  46.003269248  5.889523815
Se1  -76.36  49.83687501483  4.34440811
Se2  -76.36  49.83687501483  7.43463952
Mo  -78.02  48.878473576  5.889523815
Se1  -78.02  52.71207934283  4.34440811
Se2  -78.02  52.71207934283  7.43463952
Mo  -79.68  51.753677904  5.889523815
Se1  -79.68  55.58728367083  4.34440811
Se2  -79.68  55.58728367083  7.43463952
Se1  -63.08  32.58564904683  4.34440811
Se2  -63.08  32.58564904683  7.43463952
Se1  -64.74  35.46085337483  4.34440811
Se2  -64.74  35.46085337483  7.43463952
Mo  -66.4  34.502451936  5.889523815
Se1  -66.4  38.33605770283  4.34440811
Se2  -66.4  38.33605770283  7.43463952
Mo  -68.06  37.377656264  5.889523815
Se1  -68.06  41.21126203083  4.34440811
Se2  -68.06  41.21126203083  7.43463952
Mo  -69.72  40.252860592  5.889523815
Se1  -69.72  44.08646635883  4.34440811
Se2  -69.72  44.08646635883  7.43463952
Mo  -71.38  43.12806492  5.889523815
Se1  -71.38  46.96167068683  4.34440811
Se2  -71.38  46.96167068683  7.43463952
Mo  -73.04  46.003269248  5.889523815
Se1  -73.04  49.83687501483  4.34440811
Se2  -73.04  49.83687501483  7.43463952
Mo  -74.7  48.878473576  5.889523815
Se1  -74.7  52.71207934283  4.34440811
Se2  -74.7  52.71207934283  7.43463952
Mo  -76.36  51.753677904  5.889523815
Se1  -76.36  55.58728367083  4.34440811
Se2  -76.36  55.58728367083  7.43463952
Mo  -78.02  54.628882232  5.889523815
Se1  -78.02  58.46248799883  4.34440811
Se2  -78.02  58.46248799883  7.43463952
Mo  -79.68  57.50408656  5.889523815
Se1  -79.68  61.33769232683  4.34440811
Se2  -79.68  61.33769232683  7.43463952
Se1  -58.1  29.71044471883  4.34440811
Se2  -58.1  29.71044471883  7.43463952
Se1  -59.76  32.58564904683  4.34440811
Se2  -59.76  32.58564904683  7.43463952
Mo  -61.42  31.627247608  5.889523815
Se1  -61.42  35.46085337483  4.34440811
Se2  -61.42  35.46085337483  7.43463952
Mo  -63.08  34.502451936  5.889523815
Se1  -63.08  38.33605770283  4.34440811
Se2  -63.08  38.33605770283  7.43463952
Mo  -64.74  37.377656264  5.889523815
Se1  -64.74  41.21126203083  4.34440811
Se2  -64.74  41.21126203083  7.43463952
Mo  -66.4  40.252860592  5.889523815
Se1  -66.4  44.08646635883  4.34440811
Se2  -66.4  44.08646635883  7.43463952
Mo  -68.06  43.12806492  5.889523815
Se1  -68.06  46.96167068683  4.34440811
Se2  -68.06  46.96167068683  7.43463952
Mo  -69.72  46.003269248  5.889523815
Se1  -69.72  49.83687501483  4.34440811
Se2  -69.72  49.83687501483  7.43463952
Mo  -71.38  48.878473576  5.889523815
Se1  -71.38  52.71207934283  4.34440811
Se2  -71.38  52.71207934283  7.43463952
Mo  -73.04  51.753677904  5.889523815
Se1  -73.04  55.58728367083  4.34440811
Se2  -73.04  55.58728367083  7.43463952
Mo  -74.7  54.628882232  5.889523815
Se1  -74.7  58.46248799883  4.34440811
Se2  -74.7  58.46248799883  7.43463952
Mo  -76.36  57.50408656  5.889523815
Se1  -76.36  61.33769232683  4.34440811
Se2  -76.36  61.33769232683  7.43463952
Mo  -78.02  60.379290888  5.889523815
Se1  -78.02  64.21289665483  4.34440811
Se2  -78.02  64.21289665483  7.43463952
Mo  -79.68  63.254495216  5.889523815
Se1  -79.68  67.08810098283  4.34440811
Se2  -79.68  67.08810098283  7.43463952
Se1  -81.34  69.96330531083  4.34440811
Se2  -81.34  69.96330531083  7.43463952
Se1  -53.12  26.83524039083  4.34440811
Se2  -53.12  26.83524039083  7.43463952
Se1  -54.78  29.71044471883  4.34440811
Se2  -54.78  29.71044471883  7.43463952
Mo  -56.44  28.75204328  5.889523815
Se1  -56.44  32.58564904683  4.34440811
Se2  -56.44  32.58564904683  7.43463952
Mo  -58.1  31.627247608  5.889523815
Se1  -58.1  35.46085337483  4.34440811
Se2  -58.1  35.46085337483  7.43463952
Mo  -59.76  34.502451936  5.889523815
Se1  -59.76  38.33605770283  4.34440811
Se2  -59.76  38.33605770283  7.43463952
Mo  -61.42  37.377656264  5.889523815
Se1  -61.42  41.21126203083  4.34440811
Se2  -61.42  41.21126203083  7.43463952
Mo  -63.08  40.252860592  5.889523815
Se1  -63.08  44.08646635883  4.34440811
Se2  -63.08  44.08646635883  7.43463952
Mo  -64.74  43.12806492  5.889523815
Se1  -64.74  46.96167068683  4.34440811
Se2  -64.74  46.96167068683  7.43463952
Mo  -66.4  46.003269248  5.889523815
Se1  -66.4  49.83687501483  4.34440811
Se2  -66.4  49.83687501483  7.43463952
Mo  -68.06  48.878473576  5.889523815
Se1  -68.06  52.71207934283  4.34440811
Se2  -68.06  52.71207934283  7.43463952
Mo  -69.72  51.753677904  5.889523815
Se1  -69.72  55.58728367083  4.34440811
Se2  -69.72  55.58728367083  7.43463952
Mo  -71.38  54.628882232  5.889523815
Se1  -71.38  58.46248799883  4.34440811
Se2  -71.38  58.46248799883  7.43463952
Mo  -73.04  57.50408656  5.889523815
Se1  -73.04  61.33769232683  4.34440811
Se2  -73.04  61.33769232683  7.43463952
Mo  -74.7  60.379290888  5.889523815
Se1  -74.7  64.21289665483  4.34440811
Se2  -74.7  64.21289665483  7.43463952
Mo  -76.36  63.254495216  5.889523815
Se1  -76.36  67.08810098283  4.34440811
Se2  -76.36  67.08810098283  7.43463952
Mo  -78.02  66.129699544  5.889523815
Se1  -78.02  69.96330531083  4.34440811
Se2  -78.02  69.96330531083  7.43463952
Mo  -79.68  69.004903872  5.889523815
Se1  -79.68  72.83850963883  4.34440811
Se2  -79.68  72.83850963883  7.43463952
Mo  -81.34  71.8801082  5.889523815
Se1  -81.34  75.71371396683  4.34440811
Se2  -81.34  75.71371396683  7.43463952
Se1  -48.14  23.96003606283  4.34440811
Se2  -48.14  23.96003606283  7.43463952
Se1  -49.8  26.83524039083  4.34440811
Se2  -49.8  26.83524039083  7.43463952
Mo  -51.46  25.876838952  5.889523815
Se1  -51.46  29.71044471883  4.34440811
Se2  -51.46  29.71044471883  7.43463952
Mo  -53.12  28.75204328  5.889523815
Se1  -53.12  32.58564904683  4.34440811
Se2  -53.12  32.58564904683  7.43463952
Mo  -54.78  31.627247608  5.889523815
Se1  -54.78  35.46085337483  4.34440811
Se2  -54.78  35.46085337483  7.43463952
Mo  -56.44  34.502451936  5.889523815
Se1  -56.44  38.33605770283  4.34440811
Se2  -56.44  38.33605770283  7.43463952
Mo  -58.1  37.377656264  5.889523815
Se1  -58.1  41.21126203083  4.34440811
Se2  -58.1  41.21126203083  7.43463952
Mo  -59.76  40.252860592  5.889523815
Se1  -59.76  44.08646635883  4.34440811
Se2  -59.76  44.08646635883  7.43463952
Mo  -61.42  43.12806492  5.889523815
Se1  -61.42  46.96167068683  4.34440811
Se2  -61.42  46.96167068683  7.43463952
Mo  -63.08  46.003269248  5.889523815
Se1  -63.08  49.83687501483  4.34440811
Se2  -63.08  49.83687501483  7.43463952
Mo  -64.74  48.878473576  5.889523815
Se1  -64.74  52.71207934283  4.34440811
Se2  -64.74  52.71207934283  7.43463952
Mo  -66.4  51.753677904  5.889523815
Se1  -66.4  55.58728367083  4.34440811
Se2  -66.4  55.58728367083  7.43463952
Mo  -68.06  54.628882232  5.889523815
Se1  -68.06  58.46248799883  4.34440811
Se2  -68.06  58.46248799883  7.43463952
Mo  -69.72  57.50408656  5.889523815
Se1  -69.72  61.33769232683  4.34440811
Se2  -69.72  61.33769232683  7.43463952
Mo  -71.38  60.379290888  5.889523815
Se1  -71.38  64.21289665483  4.34440811
Se2  -71.38  64.21289665483  7.43463952
Mo  -73.04  63.254495216  5.889523815
Se1  -73.04  67.08810098283  4.34440811
Se2  -73.04  67.08810098283  7.43463952
Mo  -74.7  66.129699544  5.889523815
Se1  -74.7  69.96330531083  4.34440811
Se2  -74.7  69.96330531083  7.43463952
Mo  -76.36  69.004903872  5.889523815
Se1  -76.36  72.83850963883  4.34440811
Se2  -76.36  72.83850963883  7.43463952
Mo  -78.02  71.8801082  5.889523815
Se1  -78.02  75.71371396683  4.34440811
Se2  -78.02  75.71371396683  7.43463952
Mo  -79.68  74.755312528  5.889523815
Se1  -79.68  78.58891829483  4.34440811
Se2  -79.68  78.58891829483  7.43463952
Mo  -81.34  77.630516856  5.889523815
Se1  -81.34  81.46412262283  4.34440811
Se2  -81.34  81.46412262283  7.43463952
Se1  -43.16  21.08483173483  4.34440811
Se2  -43.16  21.08483173483  7.43463952
Se1  -44.82  23.96003606283  4.34440811
Se2  -44.82  23.96003606283  7.43463952
Mo  -46.48  23.001634624  5.889523815
Se1  -46.48  26.83524039083  4.34440811
Se2  -46.48  26.83524039083  7.43463952
Mo  -48.14  25.876838952  5.889523815
Se1  -48.14  29.71044471883  4.34440811
Se2  -48.14  29.71044471883  7.43463952
Mo  -49.8  28.75204328  5.889523815
Se1  -49.8  32.58564904683  4.34440811
Se2  -49.8  32.58564904683  7.43463952
Mo  -51.46  31.627247608  5.889523815
Se1  -51.46  35.46085337483  4.34440811
Se2  -51.46  35.46085337483  7.43463952
Mo  -53.12  34.502451936  5.889523815
Se1  -53.12  38.33605770283  4.34440811
Se2  -53.12  38.33605770283  7.43463952
Mo  -54.78  37.377656264  5.889523815
Se1  -54.78  41.21126203083  4.34440811
Se2  -54.78  41.21126203083  7.43463952
Mo  -56.44  40.252860592  5.889523815
Se1  -56.44  44.08646635883  4.34440811
Se2  -56.44  44.08646635883  7.43463952
Mo  -58.1  43.12806492  5.889523815
Se1  -58.1  46.96167068683  4.34440811
Se2  -58.1  46.96167068683  7.43463952
Mo  -59.76  46.003269248  5.889523815
Se1  -59.76  49.83687501483  4.34440811
Se2  -59.76  49.83687501483  7.43463952
Mo  -61.42  48.878473576  5.889523815
Se1  -61.42  52.71207934283  4.34440811
Se2  -61.42  52.71207934283  7.43463952
Mo  -63.08  51.753677904  5.889523815
Se1  -63.08  55.58728367083  4.34440811
Se2  -63.08  55.58728367083  7.43463952
Mo  -64.74  54.628882232  5.889523815
Se1  -64.74  58.46248799883  4.34440811
Se2  -64.74  58.46248799883  7.43463952
Mo  -66.4  57.50408656  5.889523815
Se1  -66.4  61.33769232683  4.34440811
Se2  -66.4  61.33769232683  7.43463952
Mo  -68.06  60.379290888  5.889523815
Se1  -68.06  64.21289665483  4.34440811
Se2  -68.06  64.21289665483  7.43463952
Mo  -69.72  63.254495216  5.889523815
Se1  -69.72  67.08810098283  4.34440811
Se2  -69.72  67.08810098283  7.43463952
Mo  -71.38  66.129699544  5.889523815
Se1  -71.38  69.96330531083  4.34440811
Se2  -71.38  69.96330531083  7.43463952
Mo  -73.04  69.004903872  5.889523815
Se1  -73.04  72.83850963883  4.34440811
Se2  -73.04  72.83850963883  7.43463952
Mo  -74.7  71.8801082  5.889523815
Se1  -74.7  75.71371396683  4.34440811
Se2  -74.7  75.71371396683  7.43463952
Mo  -76.36  74.755312528  5.889523815
Se1  -76.36  78.58891829483  4.34440811
Se2  -76.36  78.58891829483  7.43463952
Mo  -78.02  77.630516856  5.889523815
Se1  -78.02  81.46412262283  4.34440811
Se2  -78.02  81.46412262283  7.43463952
Mo  -79.68  80.505721184  5.889523815
Se1  -79.68  84.33932695083  4.34440811
Se2  -79.68  84.33932695083  7.43463952
Mo  -81.34  83.380925512  5.889523815
Se1  -81.34  87.21453127883  4.34440811
Se2  -81.34  87.21453127883  7.43463952
Se1  -38.18  18.20962740683  4.34440811
Se2  -38.18  18.20962740683  7.43463952
Se1  -39.84  21.08483173483  4.34440811
Se2  -39.84  21.08483173483  7.43463952
Mo  -41.5  20.126430296  5.889523815
Se1  -41.5  23.96003606283  4.34440811
Se2  -41.5  23.96003606283  7.43463952
Mo  -43.16  23.001634624  5.889523815
Se1  -43.16  26.83524039083  4.34440811
Se2  -43.16  26.83524039083  7.43463952
Mo  -44.82  25.876838952  5.889523815
Se1  -44.82  29.71044471883  4.34440811
Se2  -44.82  29.71044471883  7.43463952
Mo  -46.48  28.75204328  5.889523815
Se1  -46.48  32.58564904683  4.34440811
Se2  -46.48  32.58564904683  7.43463952
Mo  -48.14  31.627247608  5.889523815
Se1  -48.14  35.46085337483  4.34440811
Se2  -48.14  35.46085337483  7.43463952
Mo  -49.8  34.502451936  5.889523815
Se1  -49.8  38.33605770283  4.34440811
Se2  -49.8  38.33605770283  7.43463952
Mo  -51.46  37.377656264  5.889523815
Se1  -51.46  41.21126203083  4.34440811
Se2  -51.46  41.21126203083  7.43463952
Mo  -53.12  40.252860592  5.889523815
Se1  -53.12  44.08646635883  4.34440811
Se2  -53.12  44.08646635883  7.43463952
Mo  -54.78  43.12806492  5.889523815
Se1  -54.78  46.96167068683  4.34440811
Se2  -54.78  46.96167068683  7.43463952
Mo  -56.44  46.003269248  5.889523815
Se1  -56.44  49.83687501483  4.34440811
Se2  -56.44  49.83687501483  7.43463952
Mo  -58.1  48.878473576  5.889523815
Se1  -58.1  52.71207934283  4.34440811
Se2  -58.1  52.71207934283  7.43463952
Mo  -59.76  51.753677904  5.889523815
Se1  -59.76  55.58728367083  4.34440811
Se2  -59.76  55.58728367083  7.43463952
Mo  -61.42  54.628882232  5.889523815
Se1  -61.42  58.46248799883  4.34440811
Se2  -61.42  58.46248799883  7.43463952
Mo  -63.08  57.50408656  5.889523815
Se1  -63.08  61.33769232683  4.34440811
Se2  -63.08  61.33769232683  7.43463952
Mo  -64.74  60.379290888  5.889523815
Se1  -64.74  64.21289665483  4.34440811
Se2  -64.74  64.21289665483  7.43463952
Mo  -66.4  63.254495216  5.889523815
Se1  -66.4  67.08810098283  4.34440811
Se2  -66.4  67.08810098283  7.43463952
Mo  -68.06  66.129699544  5.889523815
Se1  -68.06  69.96330531083  4.34440811
Se2  -68.06  69.96330531083  7.43463952
Mo  -69.72  69.004903872  5.889523815
Se1  -69.72  72.83850963883  4.34440811
Se2  -69.72  72.83850963883  7.43463952
Mo  -71.38  71.8801082  5.889523815
Se1  -71.38  75.71371396683  4.34440811
Se2  -71.38  75.71371396683  7.43463952
Mo  -73.04  74.755312528  5.889523815
Se1  -73.04  78.58891829483  4.34440811
Se2  -73.04  78.58891829483  7.43463952
Mo  -74.7  77.630516856  5.889523815
Se1  -74.7  81.46412262283  4.34440811
Se2  -74.7  81.46412262283  7.43463952
Mo  -76.36  80.505721184  5.889523815
Se1  -76.36  84.33932695083  4.34440811
Se2  -76.36  84.33932695083  7.43463952
Mo  -78.02  83.380925512  5.889523815
Se1  -78.02  87.21453127883  4.34440811
Se2  -78.02  87.21453127883  7.43463952
Mo  -79.68  86.25612984  5.889523815
Se1  -79.68  90.08973560683  4.34440811
Se2  -79.68  90.08973560683  7.43463952
Mo  -81.34  89.131334168  5.889523815
Se1  -81.34  92.96493993483  4.34440811
Se2  -81.34  92.96493993483  7.43463952
Se1  -33.2  15.33442307883  4.34440811
Se2  -33.2  15.33442307883  7.43463952
Se1  -34.86  18.20962740683  4.34440811
Se2  -34.86  18.20962740683  7.43463952
Mo  -36.52  17.251225968  5.889523815
Se1  -36.52  21.08483173483  4.34440811
Se2  -36.52  21.08483173483  7.43463952
Mo  -38.18  20.126430296  5.889523815
Se1  -38.18  23.96003606283  4.34440811
Se2  -38.18  23.96003606283  7.43463952
Mo  -39.84  23.001634624  5.889523815
Se1  -39.84  26.83524039083  4.34440811
Se2  -39.84  26.83524039083  7.43463952
Mo  -41.5  25.876838952  5.889523815
Se1  -41.5  29.71044471883  4.34440811
Se2  -41.5  29.71044471883  7.43463952
Mo  -43.16  28.75204328  5.889523815
Se1  -43.16  32.58564904683  4.34440811
Se2  -43.16  32.58564904683  7.43463952
Mo  -44.82  31.627247608  5.889523815
Se1  -44.82  35.46085337483  4.34440811
Se2  -44.82  35.46085337483  7.43463952
Mo  -46.48  34.502451936  5.889523815
Se1  -46.48  38.33605770283  4.34440811
Se2  -46.48  38.33605770283  7.43463952
Mo  -48.14  37.377656264  5.889523815
Se1  -48.14  41.21126203083  4.34440811
Se2  -48.14  41.21126203083  7.43463952
Mo  -49.8  40.252860592  5.889523815
Se1  -49.8  44.08646635883  4.34440811
Se2  -49.8  44.08646635883  7.43463952
Mo  -51.46  43.12806492  5.889523815
Se1  -51.46  46.96167068683  4.34440811
Se2  -51.46  46.96167068683  7.43463952
Mo  -53.12  46.003269248  5.889523815
Se1  -53.12  49.83687501483  4.34440811
Se2  -53.12  49.83687501483  7.43463952
Mo  -54.78  48.878473576  5.889523815
Se1  -54.78  52.71207934283  4.34440811
Se2  -54.78  52.71207934283  7.43463952
Mo  -56.44  51.753677904  5.889523815
Se1  -56.44  55.58728367083  4.34440811
Se2  -56.44  55.58728367083  7.43463952
Mo  -58.1  54.628882232  5.889523815
Se1  -58.1  58.46248799883  4.34440811
Se2  -58.1  58.46248799883  7.43463952
Mo  -59.76  57.50408656  5.889523815
Se1  -59.76  61.33769232683  4.34440811
Se2  -59.76  61.33769232683  7.43463952
Mo  -61.42  60.379290888  5.889523815
Se1  -61.42  64.21289665483  4.34440811
Se2  -61.42  64.21289665483  7.43463952
Mo  -63.08  63.254495216  5.889523815
Se1  -63.08  67.08810098283  4.34440811
Se2  -63.08  67.08810098283  7.43463952
Mo  -64.74  66.129699544  5.889523815
Se1  -64.74  69.96330531083  4.34440811
Se2  -64.74  69.96330531083  7.43463952
Mo  -66.4  69.004903872  5.889523815
Se1  -66.4  72.83850963883  4.34440811
Se2  -66.4  72.83850963883  7.43463952
Mo  -68.06  71.8801082  5.889523815
Se1  -68.06  75.71371396683  4.34440811
Se2  -68.06  75.71371396683  7.43463952
Mo  -69.72  74.755312528  5.889523815
Se1  -69.72  78.58891829483  4.34440811
Se2  -69.72  78.58891829483  7.43463952
Mo  -71.38  77.630516856  5.889523815
Se1  -71.38  81.46412262283  4.34440811
Se2  -71.38  81.46412262283  7.43463952
Mo  -73.04  80.505721184  5.889523815
Se1  -73.04  84.33932695083  4.34440811
Se2  -73.04  84.33932695083  7.43463952
Mo  -74.7  83.380925512  5.889523815
Se1  -74.7  87.21453127883  4.34440811
Se2  -74.7  87.21453127883  7.43463952
Mo  -76.36  86.25612984  5.889523815
Se1  -76.36  90.08973560683  4.34440811
Se2  -76.36  90.08973560683  7.43463952
Mo  -78.02  89.131334168  5.889523815
Se1  -78.02  92.96493993483  4.34440811
Se2  -78.02  92.96493993483  7.43463952
Mo  -79.68  92.006538496  5.889523815
Se1  -79.68  95.84014426283  4.34440811
Se2  -79.68  95.84014426283  7.43463952
Mo  -81.34  94.881742824  5.889523815
Se1  -81.34  98.71534859083  4.34440811
Se2  -81.34  98.71534859083  7.43463952
Se1  -28.22  12.45921875083  4.34440811
Se2  -28.22  12.45921875083  7.43463952
Se1  -29.88  15.33442307883  4.34440811
Se2  -29.88  15.33442307883  7.43463952
Mo  -31.54  14.37602164  5.889523815
Se1  -31.54  18.20962740683  4.34440811
Se2  -31.54  18.20962740683  7.43463952
Mo  -33.2  17.251225968  5.889523815
Se1  -33.2  21.08483173483  4.34440811
Se2  -33.2  21.08483173483  7.43463952
Mo  -34.86  20.126430296  5.889523815
Se1  -34.86  23.96003606283  4.34440811
Se2  -34.86  23.96003606283  7.43463952
Mo  -36.52  23.001634624  5.889523815
Se1  -36.52  26.83524039083  4.34440811
Se2  -36.52  26.83524039083  7.43463952
Mo  -38.18  25.876838952  5.889523815
Se1  -38.18  29.71044471883  4.34440811
Se2  -38.18  29.71044471883  7.43463952
Mo  -39.84  28.75204328  5.889523815
Se1  -39.84  32.58564904683  4.34440811
Se2  -39.84  32.58564904683  7.43463952
Mo  -41.5  31.627247608  5.889523815
Se1  -41.5  35.46085337483  4.34440811
Se2  -41.5  35.46085337483  7.43463952
Mo  -43.16  34.502451936  5.889523815
Se1  -43.16  38.33605770283  4.34440811
Se2  -43.16  38.33605770283  7.43463952
Mo  -44.82  37.377656264  5.889523815
Se1  -44.82  41.21126203083  4.34440811
Se2  -44.82  41.21126203083  7.43463952
Mo  -46.48  40.252860592  5.889523815
Se1  -46.48  44.08646635883  4.34440811
Se2  -46.48  44.08646635883  7.43463952
Mo  -48.14  43.12806492  5.889523815
Se1  -48.14  46.96167068683  4.34440811
Se2  -48.14  46.96167068683  7.43463952
Mo  -49.8  46.003269248  5.889523815
Se1  -49.8  49.83687501483  4.34440811
Se2  -49.8  49.83687501483  7.43463952
Mo  -51.46  48.878473576  5.889523815
Se1  -51.46  52.71207934283  4.34440811
Se2  -51.46  52.71207934283  7.43463952
Mo  -53.12  51.753677904  5.889523815
Se1  -53.12  55.58728367083  4.34440811
Se2  -53.12  55.58728367083  7.43463952
Mo  -54.78  54.628882232  5.889523815
Se1  -54.78  58.46248799883  4.34440811
Se2  -54.78  58.46248799883  7.43463952
Mo  -56.44  57.50408656  5.889523815
Se1  -56.44  61.33769232683  4.34440811
Se2  -56.44  61.33769232683  7.43463952
Mo  -58.1  60.379290888  5.889523815
Se1  -58.1  64.21289665483  4.34440811
Se2  -58.1  64.21289665483  7.43463952
Mo  -59.76  63.254495216  5.889523815
Se1  -59.76  67.08810098283  4.34440811
Se2  -59.76  67.08810098283  7.43463952
Mo  -61.42  66.129699544  5.889523815
Se1  -61.42  69.96330531083  4.34440811
Se2  -61.42  69.96330531083  7.43463952
Mo  -63.08  69.004903872  5.889523815
Se1  -63.08  72.83850963883  4.34440811
Se2  -63.08  72.83850963883  7.43463952
Mo  -64.74  71.8801082  5.889523815
Se1  -64.74  75.71371396683  4.34440811
Se2  -64.74  75.71371396683  7.43463952
Mo  -66.4  74.755312528  5.889523815
Se1  -66.4  78.58891829483  4.34440811
Se2  -66.4  78.58891829483  7.43463952
Mo  -68.06  77.630516856  5.889523815
Se1  -68.06  81.46412262283  4.34440811
Se2  -68.06  81.46412262283  7.43463952
Mo  -69.72  80.505721184  5.889523815
Se1  -69.72  84.33932695083  4.34440811
Se2  -69.72  84.33932695083  7.43463952
Mo  -71.38  83.380925512  5.889523815
Se1  -71.38  87.21453127883  4.34440811
Se2  -71.38  87.21453127883  7.43463952
Mo  -73.04  86.25612984  5.889523815
Se1  -73.04  90.08973560683  4.34440811
Se2  -73.04  90.08973560683  7.43463952
Mo  -74.7  89.131334168  5.889523815
Se1  -74.7  92.96493993483  4.34440811
Se2  -74.7  92.96493993483  7.43463952
Mo  -76.36  92.006538496  5.889523815
Se1  -76.36  95.84014426283  4.34440811
Se2  -76.36  95.84014426283  7.43463952
Mo  -78.02  94.881742824  5.889523815
Se1  -78.02  98.71534859083  4.34440811
Se2  -78.02  98.71534859083  7.43463952
Mo  -79.68  97.756947152  5.889523815
Se1  -79.68  101.59055291883  4.34440811
Se2  -79.68  101.59055291883  7.43463952
Mo  -81.34  100.63215148  5.889523815
Se1  -81.34  104.46575724683  4.34440811
Se2  -81.34  104.46575724683  7.43463952
Se1  -23.24  9.58401442283  4.34440811
Se2  -23.24  9.58401442283  7.43463952
Se1  -24.9  12.45921875083  4.34440811
Se2  -24.9  12.45921875083  7.43463952
Mo  -26.56  11.500817312  5.889523815
Se1  -26.56  15.33442307883  4.34440811
Se2  -26.56  15.33442307883  7.43463952
Mo  -28.22  14.37602164  5.889523815
Se1  -28.22  18.20962740683  4.34440811
Se2  -28.22  18.20962740683  7.43463952
Mo  -29.88  17.251225968  5.889523815
Se1  -29.88  21.08483173483  4.34440811
Se2  -29.88  21.08483173483  7.43463952
Mo  -31.54  20.126430296  5.889523815
Se1  -31.54  23.96003606283  4.34440811
Se2  -31.54  23.96003606283  7.43463952
Mo  -33.2  23.001634624  5.889523815
Se1  -33.2  26.83524039083  4.34440811
Se2  -33.2  26.83524039083  7.43463952
Mo  -34.86  25.876838952  5.889523815
Se1  -34.86  29.71044471883  4.34440811
Se2  -34.86  29.71044471883  7.43463952
Mo  -36.52  28.75204328  5.889523815
Se1  -36.52  32.58564904683  4.34440811
Se2  -36.52  32.58564904683  7.43463952
Mo  -38.18  31.627247608  5.889523815
Se1  -38.18  35.46085337483  4.34440811
Se2  -38.18  35.46085337483  7.43463952
Mo  -39.84  34.502451936  5.889523815
Se1  -39.84  38.33605770283  4.34440811
Se2  -39.84  38.33605770283  7.43463952
Mo  -41.5  37.377656264  5.889523815
Se1  -41.5  41.21126203083  4.34440811
Se2  -41.5  41.21126203083  7.43463952
Mo  -43.16  40.252860592  5.889523815
Se1  -43.16  44.08646635883  4.34440811
Se2  -43.16  44.08646635883  7.43463952
Mo  -44.82  43.12806492  5.889523815
Se1  -44.82  46.96167068683  4.34440811
Se2  -44.82  46.96167068683  7.43463952
Mo  -46.48  46.003269248  5.889523815
Se1  -46.48  49.83687501483  4.34440811
Se2  -46.48  49.83687501483  7.43463952
Mo  -48.14  48.878473576  5.889523815
Se1  -48.14  52.71207934283  4.34440811
Se2  -48.14  52.71207934283  7.43463952
Mo  -49.8  51.753677904  5.889523815
Se1  -49.8  55.58728367083  4.34440811
Se2  -49.8  55.58728367083  7.43463952
Mo  -51.46  54.628882232  5.889523815
Se1  -51.46  58.46248799883  4.34440811
Se2  -51.46  58.46248799883  7.43463952
Mo  -53.12  57.50408656  5.889523815
Se1  -53.12  61.33769232683  4.34440811
Se2  -53.12  61.33769232683  7.43463952
Mo  -54.78  60.379290888  5.889523815
Se1  -54.78  64.21289665483  4.34440811
Se2  -54.78  64.21289665483  7.43463952
Mo  -56.44  63.254495216  5.889523815
Se1  -56.44  67.08810098283  4.34440811
Se2  -56.44  67.08810098283  7.43463952
Mo  -58.1  66.129699544  5.889523815
Se1  -58.1  69.96330531083  4.34440811
Se2  -58.1  69.96330531083  7.43463952
Mo  -59.76  69.004903872  5.889523815
Se1  -59.76  72.83850963883  4.34440811
Se2  -59.76  72.83850963883  7.43463952
Mo  -61.42  71.8801082  5.889523815
Se1  -61.42  75.71371396683  4.34440811
Se2  -61.42  75.71371396683  7.43463952
Mo  -63.08  74.755312528  5.889523815
Se1  -63.08  78.58891829483  4.34440811
Se2  -63.08  78.58891829483  7.43463952
Mo  -64.74  77.630516856  5.889523815
Se1  -64.74  81.46412262283  4.34440811
Se2  -64.74  81.46412262283  7.43463952
Mo  -66.4  80.505721184  5.889523815
Se1  -66.4  84.33932695083  4.34440811
Se2  -66.4  84.33932695083  7.43463952
Mo  -68.06  83.380925512  5.889523815
Se1  -68.06  87.21453127883  4.34440811
Se2  -68.06  87.21453127883  7.43463952
Mo  -69.72  86.25612984  5.889523815
Se1  -69.72  90.08973560683  4.34440811
Se2  -69.72  90.08973560683  7.43463952
Mo  -71.38  89.131334168  5.889523815
Se1  -71.38  92.96493993483  4.34440811
Se2  -71.38  92.96493993483  7.43463952
Mo  -73.04  92.006538496  5.889523815
Se1  -73.04  95.84014426283  4.34440811
Se2  -73.04  95.84014426283  7.43463952
Mo  -74.7  94.881742824  5.889523815
Se1  -74.7  98.71534859083  4.34440811
Se2  -74.7  98.71534859083  7.43463952
Mo  -76.36  97.756947152  5.889523815
Se1  -76.36  101.59055291883  4.34440811
Se2  -76.36  101.59055291883  7.43463952
Mo  -78.02  100.63215148  5.889523815
Se1  -78.02  104.46575724683  4.34440811
Se2  -78.02  104.46575724683  7.43463952
Mo  -79.68  103.507355808  5.889523815
Se1  -79.68  107.34096157483  4.34440811
Se2  -79.68  107.34096157483  7.43463952
Mo  -81.34  106.382560136  5.889523815
Se1  -81.34  110.21616590283  4.34440811
Se2  -81.34  110.21616590283  7.43463952
Se1  -19.92  9.58401442283  4.34440811
Se2  -19.92  9.58401442283  7.43463952
Se1  -21.58  12.45921875083  4.34440811
Se2  -21.58  12.45921875083  7.43463952
Mo  -23.24  11.500817312  5.889523815
Se1  -23.24  15.33442307883  4.34440811
Se2  -23.24  15.33442307883  7.43463952
Mo  -24.9  14.37602164  5.889523815
Se1  -24.9  18.20962740683  4.34440811
Se2  -24.9  18.20962740683  7.43463952
Mo  -26.56  17.251225968  5.889523815
Se1  -26.56  21.08483173483  4.34440811
Se2  -26.56  21.08483173483  7.43463952
Mo  -28.22  20.126430296  5.889523815
Se1  -28.22  23.96003606283  4.34440811
Se2  -28.22  23.96003606283  7.43463952
Mo  -29.88  23.001634624  5.889523815
Se1  -29.88  26.83524039083  4.34440811
Se2  -29.88  26.83524039083  7.43463952
Mo  -31.54  25.876838952  5.889523815
Se1  -31.54  29.71044471883  4.34440811
Se2  -31.54  29.71044471883  7.43463952
Mo  -33.2  28.75204328  5.889523815
Se1  -33.2  32.58564904683  4.34440811
Se2  -33.2  32.58564904683  7.43463952
Mo  -34.86  31.627247608  5.889523815
Se1  -34.86  35.46085337483  4.34440811
Se2  -34.86  35.46085337483  7.43463952
Mo  -36.52  34.502451936  5.889523815
Se1  -36.52  38.33605770283  4.34440811
Se2  -36.52  38.33605770283  7.43463952
Mo  -38.18  37.377656264  5.889523815
Se1  -38.18  41.21126203083  4.34440811
Se2  -38.18  41.21126203083  7.43463952
Mo  -39.84  40.252860592  5.889523815
Se1  -39.84  44.08646635883  4.34440811
Se2  -39.84  44.08646635883  7.43463952
Mo  -41.5  43.12806492  5.889523815
Se1  -41.5  46.96167068683  4.34440811
Se2  -41.5  46.96167068683  7.43463952
Mo  -43.16  46.003269248  5.889523815
Se1  -43.16  49.83687501483  4.34440811
Se2  -43.16  49.83687501483  7.43463952
Mo  -44.82  48.878473576  5.889523815
Se1  -44.82  52.71207934283  4.34440811
Se2  -44.82  52.71207934283  7.43463952
Mo  -46.48  51.753677904  5.889523815
Se1  -46.48  55.58728367083  4.34440811
Se2  -46.48  55.58728367083  7.43463952
Mo  -48.14  54.628882232  5.889523815
Se1  -48.14  58.46248799883  4.34440811
Se2  -48.14  58.46248799883  7.43463952
Mo  -49.8  57.50408656  5.889523815
Se1  -49.8  61.33769232683  4.34440811
Se2  -49.8  61.33769232683  7.43463952
Mo  -51.46  60.379290888  5.889523815
Se1  -51.46  64.21289665483  4.34440811
Se2  -51.46  64.21289665483  7.43463952
Mo  -53.12  63.254495216  5.889523815
Se1  -53.12  67.08810098283  4.34440811
Se2  -53.12  67.08810098283  7.43463952
Mo  -54.78  66.129699544  5.889523815
Se1  -54.78  69.96330531083  4.34440811
Se2  -54.78  69.96330531083  7.43463952
Mo  -56.44  69.004903872  5.889523815
Se1  -56.44  72.83850963883  4.34440811
Se2  -56.44  72.83850963883  7.43463952
Mo  -58.1  71.8801082  5.889523815
Se1  -58.1  75.71371396683  4.34440811
Se2  -58.1  75.71371396683  7.43463952
Mo  -59.76  74.755312528  5.889523815
Se1  -59.76  78.58891829483  4.34440811
Se2  -59.76  78.58891829483  7.43463952
Mo  -61.42  77.630516856  5.889523815
Se1  -61.42  81.46412262283  4.34440811
Se2  -61.42  81.46412262283  7.43463952
Mo  -63.08  80.505721184  5.889523815
Se1  -63.08  84.33932695083  4.34440811
Se2  -63.08  84.33932695083  7.43463952
Mo  -64.74  83.380925512  5.889523815
Se1  -64.74  87.21453127883  4.34440811
Se2  -64.74  87.21453127883  7.43463952
Mo  -66.4  86.25612984  5.889523815
Se1  -66.4  90.08973560683  4.34440811
Se2  -66.4  90.08973560683  7.43463952
Mo  -68.06  89.131334168  5.889523815
Se1  -68.06  92.96493993483  4.34440811
Se2  -68.06  92.96493993483  7.43463952